SCIP version 5.0.0 [precision: 8 byte] [memory: block] [mode: optimized] [LP solver: NONE] [GitHash: 3bbd232]
Copyright (C) 2002-2017 Konrad-Zuse-Zentrum fuer Informationstechnik Berlin (ZIB)

External codes: 
  Readline EditLine w  GNU library for command line editing (gnu.org/s/readline)
  CppAD 20160000.1     Algorithmic Differentiation of C++ algorithms developed by B. Bell (www.coin-or.org/CppAD)
  ZLIB 1.2.5           General purpose compression library by J. Gailly and M. Adler (zlib.net)
  GMP 6.1.2            GNU Multiple Precision Arithmetic Library developed by T. Granlund (gmplib.org)

user parameter file <scip.set> not found - using default parameters

read problem <../../Split_data/output/breast/5/1_sample_breast.logreg>
============

File name	:	../../Split_data/output/breast/5/1_sample_breast.logreg
Problem name 	:	1_sample_breast
Number of data	:	156
Number of var	:	33
The given data has linear independence

[dim=1] time: 0.003537
[dim=2] time: 0.007726
[dim=3] time: 0.011851
[dim=4] time: 0.015798
[dim=5] time: 0.019987
[dim=6] time: 0.02395
[dim=7] time: 0.027719
[dim=8] time: 0.031342
[dim=9] Time of forward = 0.034868sec.
AIC: 139.234
k: 8

[dim=33] time: 0.013648
[dim=32] time: 0.025868
[dim=31] time: 0.03679
[dim=30] time: 0.046898
[dim=29] time: 0.059019
[dim=28] time: 0.065513
[dim=27] time: 0.073499
[dim=26] time: 0.081303
[dim=25] time: 0.089332
[dim=24] time: 0.095851
[dim=23] time: 0.102447
[dim=22] Time of backward = 0.109426sec.
AIC: 119.62
k: 23
